Instance: E101-10c.dat
Class:  3
  100 --- number of customers (no depot)
   20 --- number of vehicles
  198 --- number of items
Capacity - height - width of vehicles
   200     40     20
Node - x - y - demand
    0    40.0    50.0     0.0
    1    45.0    68.0    10.0
    2    45.0    70.0    30.0
    3    42.0    66.0    10.0
    4    42.0    68.0    10.0
    5    42.0    65.0    10.0
    6    40.0    69.0    20.0
    7    40.0    66.0    20.0
    8    38.0    68.0    20.0
    9    38.0    70.0    10.0
   10    35.0    66.0    10.0
   11    35.0    69.0    10.0
   12    25.0    85.0    20.0
   13    22.0    75.0    30.0
   14    22.0    85.0    10.0
   15    20.0    80.0    40.0
   16    20.0    85.0    40.0
   17    18.0    75.0    20.0
   18    15.0    75.0    20.0
   19    15.0    80.0    10.0
   20    30.0    50.0    10.0
   21    30.0    52.0    20.0
   22    28.0    52.0    20.0
   23    28.0    55.0    10.0
   24    25.0    50.0    10.0
   25    25.0    52.0    40.0
   26    25.0    55.0    10.0
   27    23.0    52.0    10.0
   28    23.0    55.0    20.0
   29    20.0    50.0    10.0
   30    20.0    55.0    10.0
   31    10.0    35.0    20.0
   32    10.0    40.0    30.0
   33     8.0    40.0    40.0
   34     8.0    45.0    20.0
   35     5.0    35.0    10.0
   36     5.0    45.0    10.0
   37     2.0    40.0    20.0
   38     0.0    40.0    30.0
   39     0.0    45.0    20.0
   40    35.0    30.0    10.0
   41    35.0    32.0    10.0
   42    33.0    32.0    20.0
   43    33.0    35.0    10.0
   44    32.0    30.0    10.0
   45    30.0    30.0    10.0
   46    30.0    32.0    30.0
   47    30.0    35.0    10.0
   48    28.0    30.0    10.0
   49    28.0    35.0    10.0
   50    26.0    32.0    10.0
   51    25.0    30.0    10.0
   52    25.0    35.0    10.0
   53    44.0     5.0    20.0
   54    42.0    10.0    40.0
   55    42.0    15.0    10.0
   56    40.0     5.0    30.0
   57    40.0    15.0    40.0
   58    38.0     5.0    30.0
   59    38.0    15.0    10.0
   60    35.0     5.0    20.0
   61    50.0    30.0    10.0
   62    50.0    35.0    20.0
   63    50.0    40.0    50.0
   64    48.0    30.0    10.0
   65    48.0    40.0    10.0
   66    47.0    35.0    10.0
   67    47.0    40.0    10.0
   68    45.0    30.0    10.0
   69    45.0    35.0    10.0
   70    95.0    30.0    30.0
   71    95.0    35.0    20.0
   72    53.0    30.0    10.0
   73    92.0    30.0    10.0
   74    53.0    35.0    50.0
   75    45.0    65.0    20.0
   76    90.0    35.0    10.0
   77    88.0    30.0    10.0
   78    88.0    35.0    20.0
   79    87.0    30.0    10.0
   80    85.0    25.0    10.0
   81    85.0    35.0    30.0
   82    75.0    55.0    20.0
   83    72.0    55.0    10.0
   84    70.0    58.0    20.0
   85    68.0    60.0    30.0
   86    66.0    55.0    10.0
   87    65.0    55.0    20.0
   88    65.0    60.0    30.0
   89    63.0    58.0    10.0
   90    60.0    55.0    10.0
   91    60.0    60.0    10.0
   92    67.0    85.0    20.0
   93    65.0    85.0    40.0
   94    65.0    82.0    10.0
   95    62.0    80.0    30.0
   96    60.0    80.0    10.0
   97    60.0    85.0    30.0
   98    58.0    75.0    20.0
   99    55.0    80.0    10.0
  100    55.0    85.0    20.0
Node - number of items - h - w for each item
    0   0
    1   1   14    7
    2   3    5   13    9    7   31    2
    3   2   14    3   14    3
    4   1   16    6
    5   2    7   11   19    4
    6   3    8   15    8   15    5    9
    7   1    5   16
    8   1   26    2
    9   2    4    9    6    7
   10   2   12    6   12    5
   11   3    6   14   10    7   27    3
   12   1   13    4
   13   3    7   11    8    6   22    4
   14   2   10    4   13    2
   15   2   32    3   26    2
   16   3    5    9   13    7   17    3
   17   1   17    3
   18   2    7   10   14    6
   19   3    7   15    7   15    5    9
   20   2   12    8    9    5
   21   3    8   11    8    8   20    4
   22   1   14    3
   23   1   19    3
   24   1   14    7
   25   1   11    7
   26   3    5    9   19    3   19    2
   27   3    7    9    6    6   14    5
   28   1   17    3
   29   3   15    8   11    4   23    3
   30   2    7    9    9    6
   31   3    5   14    5   12   18    3
   32   1   13    3
   33   3    6    9    7    7   19    3
   34   1   12    7
   35   1   16    3
   36   2    6   15   14    5
   37   2   31    4   31    3
   38   1    7   15
   39   2   13    8   14    6
   40   3    9    4   28    3   24    2
   41   2   12    8   14    5
   42   2    7    7   10    4
   43   1   16    5
   44   1    5   11
   45   1   20    2
   46   2    5    7   15    3
   47   1   21    3
   48   3    7   11    9    8   12    4
   49   3    8    9   15    6    9    6
   50   3    6   10   14    4   25    3
   51   2    4   14   28    2
   52   1   10    8
   53   3    5   12   15    7    8    6
   54   3   23    3   19    3   12    3
   55   1    7   15
   56   3    7    9   31    2   13    2
   57   3    5   10    5    7   13    4
   58   2    4    6   30    2
   59   3    7   11   14    8   16    2
   60   1   31    2
   61   2    6   14    7   11
   62   1   12    8
   63   2   15    7   14    5
   64   2    5    8   11    7
   65   1    8   11
   66   2   15    5   27    3
   67   3    7   10    9    5   18    3
   68   2    7   15   11    7
   69   1   15    5
   70   3    7   13    6   13   21    3
   71   2    6    8   14    6
   72   2   10    8   27    4
   73   2   12    7   28    2
   74   3    5   10    4    8   12    6
   75   1    9    5
   76   3    7   15    6    9    6    8
   77   1   21    2
   78   2    9    7   28    3
   79   1   21    2
   80   2    7   12   23    3
   81   3    9    6   16    3   29    2
   82   1    6    8
   83   1   20    2
   84   2    5   14   12    8
   85   1    6   15
   86   3    4   12    4   12    6    7
   87   3    4   10    6    9    6    7
   88   1    4   16
   89   1    8   11
   90   3    6   12   10    8   15    3
   91   2    6   10   28    4
   92   3   10    8   13    6   11    5
   93   3    6    9   12    6   23    4
   94   3    4   14   17    3   23    2
   95   2    9    7   14    6
   96   1   11    7
   97   3   11    5   24    4   16    2
   98   2   13    7    9    6
   99   1    7   13
  100   2   11    8    8    7
